1 - 0
2 - 0
3 - 0
4 - 0
5 - 0
6 - 0
7 - 0
8 - 0
9 - 0
10 - 0
11 - 0
12 - 0
13 - 0
14 - 0
15 - 0
16 - 0
17 - 0
18 - 0
19 - 0
20 - 0
21 - 0
22 - 0
23 - 0
24 - 0
25 - 0
26 - 0
27 - 0
28 - 0
29 - 0
30 - 0
31 - 0
32 - 0
33 - 0
34 - 0
35 - 0
36 - 0
37 - 0
38 - 0
39 - 0
40 - 0
41 - 0
42 - 0
43 - 0
44 - 0
45 - 0
46 - 0
47 - 0
48 - 0
49 - 0
50 - 0
51 - 0
52 - 0
53 - 0
54 - 0
55 - 0
56 - 0
57 - 0
58 - 0
59 - 0
60 - 0
61 - 0
62 - 0
63 - 0
64 - 0
65 - 0
66 - 0
67 - 0
68 - 0
69 - 0
70 - 0
71 - 0
72 - 0
73 - 0
74 - 0
75 - 0
76 - 0
77 - 0
78 - 0
79 - 0
80 - 0
81 - 0
82 - 0
83 - 0
84 - 0
85 - 0
86 - 0
87 - 0
88 - 0
89 - 0
90 - 0
91 - 0
92 - 0
93 - 0
94 - 0
95 - 0
96 - 0
97 - 0
98 - 0
99 - 0
100 - 0
101 - 0
102 - 0
103 - 0
104 - 0
105 - 0
106 - 0
107 - 0
108 - 0
109 - 0
110 - 0
111 - 0
112 - 0
113 - 0
114 - 0
115 - 0
116 - 0
117 - 0
118 - 0
119 - 0
120 - 0
121 - 0
122 - 0
123 - 0
124 - 0
125 - 0
126 - 0
127 - 0
128 - 0
129 - 0
130 - 0
131 - 0
132 - 0
133 - 0
134 - 0
135 - 0
136 - 0
137 - 0
138 - 0
139 - 0
140 - 0
141 - 0
142 - 0
143 - 0
144 - 0
145 - 0
146 - 0
147 - 0
148 - 0
149 - 0
150 - 0
151 - 0
152 - 0
153 - 0
154 - 0
155 - 0
156 - 0
157 - 0
158 - 0
159 - 0
160 - 2
161 - 1
162 - 1
163 - 10
164 - 33
165 - 40
166 - 78
167 - 120
168 - 263
169 - 424
170 - 556
171 - 849
172 - 1252
173 - 1723
174 - 2305
175 - 2652
176 - 3075
177 - 3427
178 - 3781
179 - 3965
180 - 4279
181 - 4321
182 - 4555
183 - 4366
184 - 4316
185 - 4151
186 - 3770
187 - 3545
188 - 3242
189 - 3017
190 - 2712
191 - 2480
192 - 2342
193 - 2131
194 - 1961
195 - 1836
196 - 1624
197 - 1499
198 - 1308
199 - 1241
200 - 1126
201 - 1019
202 - 1120
203 - 991
204 - 1004
205 - 888
206 - 939
207 - 916
208 - 907
209 - 872
210 - 911
211 - 823
212 - 870
213 - 854
214 - 829
215 - 784
216 - 789
217 - 807
218 - 749
219 - 748
220 - 703
221 - 685
222 - 708
223 - 667
224 - 673
225 - 635
226 - 650
227 - 639
228 - 603
229 - 562
230 - 562
231 - 609
232 - 571
233 - 543
234 - 533
235 - 540
236 - 506
237 - 472
238 - 455
239 - 455
240 - 433
241 - 458
242 - 440
243 - 417
244 - 383
245 - 429
246 - 436
247 - 385
248 - 383
249 - 386
250 - 368
251 - 354
252 - 344
253 - 360
254 - 327
255 - 323
256 - 320
257 - 330
258 - 297
259 - 307
260 - 294
261 - 263
262 - 276
263 - 271
264 - 251
265 - 252
266 - 260
267 - 244
268 - 241
269 - 274
270 - 208
271 - 240
272 - 227
273 - 244
274 - 189
275 - 218
276 - 223
277 - 220
278 - 196
279 - 186
280 - 171
281 - 215
282 - 197
283 - 217
284 - 203
285 - 203
286 - 178
287 - 195
288 - 183
289 - 190
290 - 188
291 - 186
292 - 180
293 - 160
294 - 159
295 - 159
296 - 175
297 - 142
298 - 164
299 - 143
300 - 150
301 - 155
302 - 147
303 - 118
304 - 137
305 - 133
306 - 140
307 - 156
308 - 143
309 - 140
310 - 149
311 - 126
312 - 146
313 - 129
314 - 158
315 - 147
316 - 150
317 - 124
318 - 152
319 - 117
320 - 153
321 - 112
322 - 137
323 - 131
324 - 142
325 - 139
326 - 139
327 - 149
328 - 130
329 - 123
330 - 119
331 - 129
332 - 123
333 - 114
334 - 114
335 - 113
336 - 102
337 - 94
338 - 105
339 - 84
340 - 83
341 - 62
342 - 54
343 - 51
344 - 42
345 - 37
346 - 29
347 - 23
348 - 12
349 - 4
350 - 0

0.1 - 88304
0.2 - 23104
0.3 - 9274
0.4 - 4948
0.5 - 2794
0.6 - 1825
0.7 - 1407
0.8 - 1112
0.9 - 917
1 - 816
